Version identifier: 20.1.0.0 | 2020-11-10 | 9bedb6d68
Tried aggregator 3 times.
MIP Presolve eliminated 1847 rows and 927 columns.
MIP Presolve modified 4738 coefficients.
Aggregator did 193 substitutions.
Reduced MIP has 2769 rows, 2195 columns, and 9080 nonzeros.
Reduced MIP has 444 binaries, 1751 generals, 0 SOSs, and 0 indicators.
Presolve time = 0.03 sec. (13.08 ticks)
Probing fixed 60 vars, tightened 746 bounds.
Probing time = 0.00 sec. (2.03 ticks)
Tried aggregator 2 times.
Detecting symmetries...
MIP Presolve eliminated 1160 rows and 106 columns.
MIP Presolve modified 243 coefficients.
Aggregator did 30 substitutions.
Reduced MIP has 1579 rows, 2059 columns, and 5146 nonzeros.
Reduced MIP has 692 binaries, 1367 generals, 0 SOSs, and 0 indicators.
Presolve time = 0.02 sec. (7.61 ticks)
Probing time = 0.00 sec. (0.42 ticks)
Clique table members: 5.
MIP emphasis: balance optimality and feasibility.
MIP search method: dynamic search.
Parallel mode: deterministic, using up to 24 threads.
Root relaxation solution time = 0.02 sec. (4.56 ticks)

        Nodes                                         Cuts/
   Node  Left     Objective  IInf  Best Integer    Best Bound    ItCnt     Gap

*     0+    0                           57.0000        0.0000           100.00%
      0     0        0.0000    78       57.0000        0.0000      417  100.00%
*     0+    0                           20.0000        0.0000           100.00%
      0     0        0.0000   130       20.0000     Cuts: 198      564  100.00%
*     0+    0                           15.0000        0.0000           100.00%
      0     0        0.0000   168       15.0000      Cuts: 71      740  100.00%
      0     2        0.0000   189       15.0000        7.0000      740   53.33%
Elapsed time = 1.14 sec. (167.51 ticks, tree = 0.02 MB, solutions = 3)
*   258   132      integral     0       14.0000        7.0000    39911   50.00%
*   480+  106                           13.0000        7.0000            46.15%
*   635+   67                           12.0000        7.0000            41.67%

Cover cuts applied:  1
Implied bound cuts applied:  220
Flow cuts applied:  5
Mixed integer rounding cuts applied:  18
Zero-half cuts applied:  62
Lift and project cuts applied:  22
Gomory fractional cuts applied:  44

Root node processing (before b&c):
  Real time             =    1.07 sec. (166.86 ticks)
Parallel b&c, 24 threads:
  Real time             =    1.82 sec. (215.44 ticks)
  Sync time (average)   =    1.30 sec.
  Wait time (average)   =    0.00 sec.
                          ------------
Total (root+branch&cut) =    2.88 sec. (382.31 ticks)

Solution status = Optimal
Solution LB = 12
Solution UB = 12
Runtime = 2.88966 seconds
	Command being timed: "/home/min/git_repos/CS598MEBProject/CNT-ILP/build/cnt -s 2 ./output/k8_n30/simC_c1_k8_n30_u3_s2_del04.input-left.cnp"
	User time (seconds): 44.73
	System time (seconds): 0.34
	Percent of CPU this job got: 1528%
	Elapsed (wall clock) time (h:mm:ss or m:ss): 0:02.94
	Average shared text size (kbytes): 0
	Average unshared data size (kbytes): 0
	Average stack size (kbytes): 0
	Average total size (kbytes): 0
	Maximum resident set size (kbytes): 167324
	Average resident set size (kbytes): 0
	Major (requiring I/O) page faults: 0
	Minor (reclaiming a frame) page faults: 64583
	Voluntary context switches: 12222
	Involuntary context switches: 5769
	Swaps: 0
	File system inputs: 0
	File system outputs: 16
	Socket messages sent: 0
	Socket messages received: 0
	Signals delivered: 0
	Page size (bytes): 4096
	Exit status: 0
